c RoundingSat 2
c branch HEAD
c commit c548e10
c #variables 32 #constraints 294
c #Conflicts:       1000 | #Constraints:       1293
c #Conflicts:       2000 | #Constraints:       2293
c INPROCESSING
c GARBAGE COLLECT
c #Conflicts:       3000 | #Constraints:       2301
c #Conflicts:       4000 | #Constraints:       3301
c INPROCESSING
c GARBAGE COLLECT
c #Conflicts:       5000 | #Constraints:       2707
c cpu time 0.092429 s
c deterministic time 9933021 9.93e+06
c optimization time 1.1e-05 s
c total solve time 0.091643 s
c core-guided solve time 0 s
c propagation time 0.058039 s
c conflict analysis time 0.025858 s
c propagations 60210
c resolve steps 22530
c decisions 6988
c conflicts 5409
c restarts 28
c inprocessing phases 2
c input clauses 293
c input cardinalities 1
c input general constraints 0
c input average constraint length 9.85
c input average constraint degree 1.07
c learned clauses 3500
c learned cardinalities 518
c learned general constraints 1391
c learned average constraint length 12.55
c learned average constraint degree 3.62
c watched constraints 614
c counting constraints 777
c gcd simplifications 137
c detected cardinalities 122
c weakened non-implied lits 29196
c weakened non-implying lits 47
c original variables 32
c clausal propagations 15439
c cardinality propagations 19956
c watched propagations 1461
c counting propagations 15836
c watch lookups 3545795
c watch backjump lookups 2241327
c watch checks 3144859
c propagation checks 543956
c constraint additions 317278
c trail pops 72607
c formula constraints 294
c learned constraints 5409
c bound constraints 0
c core-guided constraints 0
c encountered formula constraints 11573
c encountered learned constraints 16366
c encountered bound constraints 0
c encountered core-guided constraints 0
c LP total time 0 s
c LP solve time 0 s
c LP constraints added 0
c LP constraints removed 0
c LP pivots internal 0
c LP pivots root 0
c LP calls 0
c LP optimalities 0
c LP no pivot count 0
c LP infeasibilities 0
c LP valid Farkas constraints 0
c LP learned Farkas constraints 0
c LP basis resets 0
c LP cycling count 0
c LP singular count 0
c LP no primal count 0
c LP no farkas count 0
c LP other issue count 0
c LP Gomory cuts 0
c LP learned cuts 0
c LP deleted cuts 0
c LP encountered Gomory constraints 0
c LP encountered Farkas constraints 0
c LP encountered learned Farkas constraints 0
c CG auxiliary variables introduced 0
c CG solutions found 0
c CG cores constructed 0
c CG core cardinality constraints returned 0
c CG unit cores 0
c CG single cores 0
c CG blocks removed during cardinality reduction 0
c CG first core best 0
c CG decision core best 0
c CG core reduction tie 0
c CG core degree average 0.00
c CG core slack average 0.00
s SATISFIABLE
v -x1 x2 -x3 -x4 -x5 -x6 -x7 x8 -x9 -x10 x11 -x12 x13 -x14 x15 -x16 x17 -x18 x19 -x20 -x21 x22 -x23 x24 -x25 -x26 -x27 -x28 -x29 -x30 -x31 x32
